15	3	2
1981	1981	1981	
260	559	1106	
495	719	785	
776	404	678	
200	170	206	
154	626	1089	
77	621	822	
969	413	574	
725	912	1423	
312	685	1059	
69	502	657	
342	72	99	
956	845	1143	
51	512	704	
97	571	609	
137	315	596	
